problem_set_name: A-n54-k7, time: 820.3125 seconds, generations: 50000, cxpb: 0.85, mutpb: 0.15, cx_algorithm: cycle_xo, mut_algorithm: inversion_mut, 
Route #1: 7 18 19 49 23 38
Route #2: 11 14 33 37 43 53 28 54 35
Route #3: 9 27 40 13 22 48 36
Route #4: 31 12 15 8 50 16 5 3
Route #5: 20 44 26 17 24 34
Route #6: 51 52 30 41 4 32 46 6 47
Route #7: 39 21 29 2 10 25 42 45
Cost 1383